results_rootrelaxation/bin018_060_045.srr.sol
solution status: optimal solution found
objective value:                                    0
_var2719_                           0.190103780236559 	(obj:0)
_var2721_                          0.0490587424333254 	(obj:0)
_var2723_                          0.0554798586992424 	(obj:0)
_var2724_                          0.0843646800210758 	(obj:0)
_var2734_                          0.0983560684891063 	(obj:0)
_var2756_                           0.210493098300552 	(obj:0)
_var2767_                           0.271268713845759 	(obj:0)
_var2773_                          0.0369173716124856 	(obj:0)
_var2776_                           0.150080332537813 	(obj:0)
_var2787_                            0.12597661389249 	(obj:0)
_var2789_                           0.461703664899598 	(obj:0)
_var2801_                           0.116823432723619 	(obj:0)
_var2802_                          0.0666422888294429 	(obj:0)
_var2805_                           0.223519565324541 	(obj:0)
_var2813_                         0.00790771743896575 	(obj:0)
_var2818_                           0.127511183015463 	(obj:0)
_var2822_                          0.0996102865438583 	(obj:0)
_var2829_                           0.235095524673033 	(obj:0)
_var2837_                           0.194149708530054 	(obj:0)
_var2842_                           0.130737300827468 	(obj:0)
_var2853_                           0.314920482606802 	(obj:0)
_var2857_                          0.0151546467985843 	(obj:0)
_var2869_                           0.214815976269297 	(obj:0)
_var2871_                           0.060221808877706 	(obj:0)
_var2872_                          0.0326219974574777 	(obj:0)
_var2875_                           0.087704647910433 	(obj:0)
_var2881_                          0.0980980116323819 	(obj:0)
_var2884_                           0.313820898674099 	(obj:0)
_var2887_                           0.263571477063198 	(obj:0)
_var2895_                           0.058804925830239 	(obj:0)
_var2908_                          0.0405758476793873 	(obj:0)
_var2909_                           0.221530105920786 	(obj:0)
_var2912_                           0.140015180363823 	(obj:0)
_var2916_                           0.166467511901182 	(obj:0)
_var2917_                           0.208191125417146 	(obj:0)
_var2924_                          0.0352831200355951 	(obj:0)
_var2932_                            0.24790930497788 	(obj:0)
_var2934_                         0.00687724984465399 	(obj:0)
_var2936_                          0.0216430426896881 	(obj:0)
_var2937_                          0.0333822322641386 	(obj:0)
_var2940_                          0.0133218741248879 	(obj:0)
_var2941_                          0.0239462813668104 	(obj:0)
_var2946_                           0.186384417679517 	(obj:0)
_var2947_                           0.276837553900477 	(obj:0)
_var2949_                          0.0521244252800598 	(obj:0)
_var2951_                           0.425584656630371 	(obj:0)
_var2953_                           0.102697735032894 	(obj:0)
_var2961_                           0.136582477051214 	(obj:0)
_var2962_                            0.27493587956427 	(obj:0)
_var2964_                           0.242420903643028 	(obj:0)
_var2972_                          0.0537782028278944 	(obj:0)
_var2973_                           0.145348222269392 	(obj:0)
_var2974_                          0.0842608327124734 	(obj:0)
_var2977_                          0.0809421284305138 	(obj:0)
_var2979_                           0.107315201594615 	(obj:0)
_var2981_                           0.142817844574138 	(obj:0)
_var2982_                          0.0571445823009914 	(obj:0)
_var2985_                          0.0366204445200921 	(obj:0)
_var2987_                           0.116768298931903 	(obj:0)
_var2989_                          0.0625753246856944 	(obj:0)
_var2991_                           0.275472361232321 	(obj:0)
_var2994_                           0.135847842373718 	(obj:0)
_var2995_                           0.037048116223781 	(obj:0)
_var2999_                           0.137537936826229 	(obj:0)
_var3000_                          0.0171364317710233 	(obj:0)
_var3001_                           0.231614764669242 	(obj:0)
_var3003_                           0.251661654985855 	(obj:0)
_var3010_                           0.165243079558605 	(obj:0)
_var3012_                          0.0820409944658143 	(obj:0)
_var3016_                          0.0476024830430544 	(obj:0)
_var3017_                           0.141478513312593 	(obj:0)
_var3018_                           0.114652809374713 	(obj:0)
_var3019_                             0.1408168897307 	(obj:0)
_var3021_                           0.278087402868232 	(obj:0)
_var3022_                           0.166712178946707 	(obj:0)
_var3026_                          0.0447833015555254 	(obj:0)
_var3027_                          0.0493060755758245 	(obj:0)
_var3029_                          0.0640357175460567 	(obj:0)
_var3031_                           0.242075070062834 	(obj:0)
_var3033_                          0.0472332754255498 	(obj:0)
_var3036_                          0.0752294470121019 	(obj:0)
_var3038_                           0.236963780939989 	(obj:0)
_var3040_                         0.00194414970763479 	(obj:0)
_var3043_                           0.260444910468271 	(obj:0)
_var3045_                          0.0751242501325911 	(obj:0)
_var3046_                           0.221114242667797 	(obj:0)
_var3047_                           0.121817562678121 	(obj:0)
_var3048_                         0.00312358497410912 	(obj:0)
_var3050_                           0.105262024977392 	(obj:0)
_var3051_                          0.0440076258370885 	(obj:0)
_var3053_                          0.0426299046071917 	(obj:0)
_var3058_                          0.0312607681065273 	(obj:0)
_var3060_                           0.036264591110829 	(obj:0)
_var3061_                          0.0350408924410731 	(obj:0)
_var3062_                          0.0210882898911526 	(obj:0)
_var3063_                          0.0843414593971521 	(obj:0)
_var3065_                           0.134015344098916 	(obj:0)
_var3067_                          0.0534311741991522 	(obj:0)
_var3068_                           0.283091987216782 	(obj:0)
_var3075_                           0.220251939665642 	(obj:0)
_var3076_                         0.00164348798372435 	(obj:0)
_var3077_                          0.0890505524566219 	(obj:0)
_var3079_                           0.106915527609867 	(obj:0)
_var3081_                           0.123696995485767 	(obj:0)
_var3083_                          0.0373267940426515 	(obj:0)
_var3084_                           0.226459397594764 	(obj:0)
_var3091_                          0.0707046969452376 	(obj:0)
_var3092_                         0.00807949917061884 	(obj:0)
_var3093_                          0.0884996985147404 	(obj:0)
_var3094_                          0.0669028598294807 	(obj:0)
_var3095_                         0.00592699713006668 	(obj:0)
_var3097_                           0.035242540414381 	(obj:0)
_var3098_                           0.253473869928738 	(obj:0)
_var3100_                          0.0630180537497809 	(obj:0)
_var3101_                          0.0739927048393702 	(obj:0)
_var3102_                          0.0538656632918988 	(obj:0)
_var3103_                           0.234612307497937 	(obj:0)
_var3105_                           0.238138527978612 	(obj:0)
_var3108_                          0.0146474690356143 	(obj:0)
_var3109_                          0.0710728589378568 	(obj:0)
_var3110_                          0.0441045531402711 	(obj:0)
_var3111_                          0.0169071674666863 	(obj:0)
_var3114_                           0.117693594735402 	(obj:0)
_var3115_                          0.0343958107274131 	(obj:0)
_var3116_                          0.0694366128725958 	(obj:0)
_var3119_                          0.0319583699003562 	(obj:0)
_var3120_                          0.0994993053301964 	(obj:0)
_var3122_                           0.104029868977843 	(obj:0)
_var3123_                           0.243839739537294 	(obj:0)
_var3124_                          0.0694862829350166 	(obj:0)
_var3125_                          0.0528598398093745 	(obj:0)
_var3126_                           0.198978272802766 	(obj:0)
_var3128_                          0.0930304823091699 	(obj:0)
_var3129_                           0.138635385177376 	(obj:0)
_var3130_                           0.023436737817897 	(obj:0)
_var3131_                          0.0356836979716947 	(obj:0)
_var3134_                          0.0268350091152701 	(obj:0)
_var3135_                          0.0162408961204625 	(obj:0)
_var3137_                           0.135745698309714 	(obj:0)
_var3138_                          0.0640502822377439 	(obj:0)
_var3143_                          0.0706369216394369 	(obj:0)
_var3144_                           0.139763405297861 	(obj:0)
_var3145_                          0.0102568815326111 	(obj:0)
_var3146_                          0.0393546683061612 	(obj:0)
_var3150_                          0.0160645315801522 	(obj:0)
_var3151_                           0.210743840974655 	(obj:0)
_var3153_                          0.0187313290893147 	(obj:0)
_var3154_                          0.0174076029170155 	(obj:0)
_var3156_                          0.0923490493835916 	(obj:0)
_var3161_                         0.00423139540719417 	(obj:0)
_var3170_                         0.00369062025165498 	(obj:0)
